p cnf 41 112
a 24 26 0
e 1 2 3 4 5 6 7 8 9 10 11 12 13 14 15 16 17 18 19 20 21 22 23 25 27 28 29 30 31 32 33 34 35 36 37 38 39 40 41 0
-2 -1 0
-2 -1 0
1 2 0
2 -1 -3 0
-2 1 -3 0
2 1 3 0
-2 -1 3 0
-7 5 0
-7 6 0
-5 -6 7 0
-4 7 -8 0
4 -7 -8 0
-4 -7 8 0
4 7 8 0
3 -8 -9 0
-3 8 -9 0
3 8 9 0
-3 -8 9 0
11 10 0
11 -1 0
-10 1 -11 0
-12 11 0
-12 -1 0
-11 1 12 0
-13 -2 0
-13 -12 0
2 12 13 0
-14 10 0
-14 1 0
-10 -1 14 0
-15 -14 0
-15 10 0
14 -10 15 0
16 13 0
16 15 0
-13 -15 -16 0
17 -9 0
17 16 0
9 -16 -17 0
-19 -11 0
-19 18 0
11 -18 19 0
-20 4 0
-20 18 0
-4 -18 20 0
21 19 0
21 -20 0
-19 20 -21 0
-23 22 0
-23 18 0
-22 -18 23 0
-25 -24 0
-25 7 0
24 -7 25 0
5 -18 -26 0
-5 18 -26 0
5 18 26 0
-5 -18 26 0
27 5 0
27 18 0
-5 -18 -27 0
28 -10 0
28 27 0
10 -27 -28 0
-28 29 -30 0
28 -29 -30 0
-28 -29 30 0
28 29 30 0
-26 -30 -31 0
26 30 -31 0
-26 30 31 0
26 -30 31 0
25 -31 -32 0
-25 31 -32 0
25 31 32 0
-25 -31 32 0
33 23 0
33 32 0
-23 -32 -33 0
-34 21 0
-34 -33 0
-21 33 34 0
-36 -35 0
-36 14 0
35 -14 36 0
37 4 0
37 24 0
-4 -24 -37 0
38 -24 0
38 -37 0
24 37 -38 0
-39 -36 0
-39 -38 0
36 38 39 0
-34 -39 -40 0
34 39 -40 0
-34 39 40 0
34 -39 40 0
-41 17 0
-41 -40 0
-17 40 41 0
14 3 1 0
13 -28 19 0
-15 27 37 16 0
-39 23 21 10 -4 0
29 10 40 -16 -5 17 3 0
36 -18 30 6 17 -24 0
-8 26 11 25 -39 0
-37 -26 -31 0
-12 6 -26 23 36 7 34 0
-18 -9 -21 -30 22 0
41 0
